c ---- [ banner ] ------------------------------------------------------------
c
c Kissat SAT Solver
c 
c Copyright (c) 2021-2024 Armin Biere University of Freiburg
c Copyright (c) 2019-2021 Armin Biere Johannes Kepler University Linz
c 
c Version 4.0.1 43f02cf3e992cb44653b35e5cb26f93281552ae0
c gcc (Ubuntu 13.2.0-23ubuntu4) 13.2.0 -W -Wall -O3 -DNDEBUG
c Thu Sep 12 12:27:46 CEST 2024 Linux abryzen9 6.8.0-41-generic x86_64
c
c ---- [ parsing ] -----------------------------------------------------------
c
c opened and reading DIMACS file:
c
c   /data/artifact/AMulet2.0_artifact/exp4/cnf_mfs_64/64_64_U_SP_DT_LF_GenMul_mfs.cnf
c
c parsed 'p cnf 34701 135667' header
c closing input after reading 2638452 bytes (3 MB)
c finished parsing after 0.02 seconds
c
c ---- [ options ] -----------------------------------------------------------
c
c --stable=0                       (different from default '1')
c
c ---- [ solving ] -----------------------------------------------------------
c
c  seconds switched rate     size/glue tier1  binary           remaining
c         MB reductions conflicts size  tier2     irredundant
c          level restarts redundant glue  trail           variables
c
c *  0.02 10 0 0 0  0 0   0   0 0.0 0 0 0 0 0% 27518 108147 34698 100%
c (  0.04 12 0 0 0  0 0   0   0 0.0 0 0 0 0 0% 27518 108147 34698 100%
c .  0.05 12 0 0 0  0 0   0   0 0.0 0 0 0 0 0% 27514 108147 34698 100%
c c  0.12 21 0 0 0  0 0   0   0 0.0 0 0 0 0 0% 34308 94559 31301 90%
c d  0.12 21 0 0 0  0 0   0   0 0.0 0 0 0 0 0% 27514 94559 31301 90%
c =  0.16 21 0 0 0  0 0   0   0 0.0 0 0 0 0 0% 28066 94559 31025 89%
c d  0.17 21 0 0 0  0 0   0   0 0.0 0 0 0 0 0% 27514 94559 31025 89%
c f  0.24 19 0 0 0  0 0   0   0 0.0 0 0 0 0 0% 30377 89969 32752 94%
c e  0.34 26 0 0 0  0 0   0   0 0.0 0 0 0 0 0% 8585 103933 21657 62%
c )  0.34 26 0 0 0  0 0   0   0 0.0 0 0 0 0 0% 8585 103933 21657 62%
c {  0.36 26 0 0 0  0 0   0   0 0.0 0 0 2 6 0% 8585 103933 21657 62%
c -  0.53 28 205 0 1 167 28 1000 761 4.8 39 8 3 12 26% 8601 103933 21657 62%
c -  0.71 28 171 0 2 240 24 2000 1508 4.6 34 7 3 12 29% 8603 103933 21657 62%
c c  0.79 24 258 0 2 258 24 2502 1986 4.4 30 7 3 12 28% 8605 103930 21656 62%
c d  0.79 24 258 0 2 258 24 2502 1986 4.4 30 7 3 12 28% 8603 103930 21656 62%
c u  0.80 24 258 0 2 258 24 2502 1479 4.4 30 7 3 12 28% 8608 103930 21656 62%
c v  0.81 24 258 0 2 258 24 2502 1327 4.4 30 7 3 12 28% 8608 103930 21656 62%
c w  0.82 24 258 0 2 258 24 2502 1327 4.4 30 7 3 12 28% 8608 103930 21656 62%
c x  0.83 24 258 0 2 258 24 2502 1327 4.4 30 7 3 12 28% 8608 103923 21656 62%
c =  0.88 24 258 0 2 258 24 2502 1327 4.4 30 7 3 12 28% 9006 103923 21457 62%
c
c  seconds   switched   rate       size/glue tier1     binary          remaining
c         MB  reductions conflicts       size  tier2      irredundant
c           level restarts    redundant    glue    trail          variables
c
c d  0.89 24 258 0 2 258 24 2502 1327 4.4 30 7 3 12 28% 8607 103923 21457 62%
c f  0.91 24 258 0 2 258 24 2502 1327 4.4 30 7 3 12 28% 9264 102642 22081 64%
c u  0.93 24 258 0 2 258 24 2502 1270 4.4 30 7 3 12 28% 9264 102642 22081 64%
c v  0.94 24 258 0 2 258 24 2502 1194 4.4 30 7 3 12 28% 9264 102642 22081 64%
c w  0.96 28 258 0 2 258 24 2502 1191 4.4 30 7 3 12 28% 9264 102642 22081 64%
c =  1.00 28 258 0 2 258 24 2502 1191 4.4 30 7 3 12 28% 9588 102642 21919 63%
c d  1.01 28 258 0 2 258 24 2502 1191 4.4 30 7 3 12 28% 9202 102642 21919 63%
c f  1.04 28 258 0 2 258 24 2502 1191 4.4 30 7 3 12 28% 9593 102054 22115 64%
c -  1.18 28 387 0 3 338 26 3414 1742 4.5 29 6 2 11 30% 9606 102054 22115 64%
c -  1.52 28 369 0 4 535 30 5146 2816 4.5 33 7 2 10 31% 9653 102054 22115 64%
c -  1.94 28 366 0 5 760 33 7147 3939 4.6 37 8 2 10 31% 9701 102054 22115 64%
c c  2.02 28 367 0 5 773 32 7705 4359 4.5 35 8 2 10 30% 9716 101962 22085 64%
c d  2.02 28 367 0 5 773 32 7705 4351 4.5 35 8 2 10 30% 9656 101962 22085 64%
c u  2.04 28 367 0 5 773 32 7705 3520 4.5 35 8 2 10 30% 9660 101962 22085 64%
c v  2.06 28 367 0 5 773 32 7705 3032 4.5 35 8 2 10 30% 9661 101962 22085 64%
c w  2.08 28 367 0 5 773 32 7705 3024 4.5 35 8 2 10 30% 9661 101962 22085 64%
c x  2.12 28 367 0 5 773 32 7705 3024 4.5 35 8 2 10 30% 9661 100297 22085 64%
c =  2.27 28 367 0 5 773 32 7705 3024 4.5 35 8 2 10 30% 10475 100297 21678 62%
c d  2.28 28 367 0 5 773 32 7705 3019 4.5 35 8 2 10 30% 9536 100297 21675 62%
c f  2.34 28 367 0 5 773 32 7705 3019 4.5 35 8 2 10 30% 11106 97942 22460 65%
c
c  seconds   switched   rate       size/glue tier1     binary          remaining
c         MB  reductions conflicts       size  tier2       irredundant
c           level restarts    redundant    glue    trail          variables
c
c u  2.45 28 367 0 5 773 32 7705 2774 4.5 35 8 2 10 30% 11107 97942 22460 65%
c v  2.48 28 367 0 5 773 32 7705 2680 4.5 35 8 2 10 30% 11107 97942 22460 65%
c w  2.50 28 367 0 5 773 32 7705 2675 4.5 35 8 2 10 30% 11107 97942 22460 65%
c x  2.56 28 367 0 5 773 32 7705 2675 4.5 35 8 2 10 30% 11107 92845 22460 65%
c =  2.71 28 367 0 5 773 32 7705 2675 4.5 35 8 2 10 30% 11951 92843 22038 64%
c d  2.72 28 367 0 5 773 32 7705 2671 4.5 35 8 2 10 30% 11016 92843 22037 64%
c t  2.74 28 367 0 5 773 32 7705 2671 4.5 35 8 2 10 30% 10985 92843 22037 64%
c f  2.80 28 367 0 5 773 32 7705 2671 4.5 35 8 2 10 30% 11399 92219 22244 64%
c -  3.20 28 366 0 6 851 31 9384 3589 4.4 33 8 2 10 30% 11427 92219 22244 64%
c o  3.36 28 350 0 6 913 30 10011 4202 4.3 32 8 2 10 30% 11427 92219 22244 64%
c -  3.88 28 365 0 7 1080 30 11833 5049 4.4 33 8 2 10 29% 11466 92219 22244 64%
c s  4.17 28 365 0 7 1147 30 12507 5653 4.5 34 8 2 10 29% 11476 91121 22244 64%
c e  4.29 28 365 0 7 1147 30 12507 5653 4.5 34 8 2 10 29% 9975 92037 20899 60%
c s  4.30 28 365 0 7 1147 30 12507 5653 4.5 34 8 2 10 29% 9976 91160 20899 60%
c e  4.32 28 365 0 7 1147 30 12507 5653 4.5 34 8 2 10 29% 9973 91163 20895 60%
c ^  4.32 28 365 0 7 1147 30 12507 5653 4.5 34 8 2 10 29% 9973 91163 20895 60%
c -  4.93 28 379 0 8 1330 31 14479 6041 4.5 35 8 2 9 29% 10001 91163 20895 60%
c d  5.24 28 370 0 8 1409 31 15781 7031 4.6 35 8 2 9 28% 9834 91163 20745 60%
c u  5.27 28 370 0 8 1409 31 15781 5651 4.6 35 8 2 9 28% 9845 91163 20745 60%
c v  5.30 28 370 0 8 1409 31 15781 4823 4.6 35 8 2 9 28% 9845 91163 20745 60%
c
c  seconds   switched    rate        size/glue tier1    binary         remaining
c         MB  reductions   conflicts       size  tier2     irredundant
c           level  restarts     redundant    glue   trail         variables
c
c w  5.36 28 370 0 8 1409 31 15781 4814 4.6 35 8 2 9 28% 9845 91163 20745 60%
c x  5.38 28 370 0 8 1409 31 15781 4814 4.6 35 8 2 9 28% 9846 90572 20745 60%
c =  5.53 28 370 0 8 1409 31 15781 4814 4.6 35 8 2 9 28% 12068 90571 19634 57%
c d  5.54 28 370 0 8 1409 31 15781 4746 4.6 35 8 2 9 28% 9342 90571 19632 57%
c t  5.55 28 370 0 8 1409 31 15781 4746 4.6 35 8 2 9 28% 9330 90571 19632 57%
c f  5.59 28 370 0 8 1409 31 15781 4746 4.6 35 8 2 9 28% 9331 90566 19634 57%
c c  5.63 28 370 0 8 1409 31 15781 4746 4.6 35 8 2 9 28% 9335 90554 19631 57%
c d  5.64 28 370 0 8 1409 31 15781 4746 4.6 35 8 2 9 28% 9329 90554 19631 57%
c u  5.66 28 370 0 8 1409 31 15781 4413 4.6 35 8 2 9 28% 9331 90554 19631 57%
c v  5.67 28 370 0 8 1409 31 15781 4271 4.6 35 8 2 9 28% 9331 90554 19631 57%
c w  5.74 28 370 0 8 1409 31 15781 4250 4.6 35 8 2 9 28% 9331 90554 19631 57%
c x  5.77 28 370 0 8 1409 31 15781 4248 4.6 35 8 2 9 28% 9331 89535 19631 57%
c =  5.92 28 370 0 8 1409 31 15781 4248 4.6 35 8 2 9 28% 10863 89535 18865 54%
c d  5.92 28 370 0 8 1409 31 15781 4169 4.6 35 8 2 9 28% 9030 89535 18865 54%
c -  6.11 28 363 0 9 1489 30 17307 4895 4.5 34 8 2 9 28% 9041 89535 18865 54%
c o  6.38 28 361 0 9 1630 29 20051 7353 4.2 33 8 2 9 27% 9068 89535 18865 54%
c -  6.51 28 358 0 10 1698 29 20307 6695 4.3 35 8 2 9 27% 9069 89535 18865 54%
c -  7.13 28 351 0 11 2015 30 23470 8361 4.4 37 8 2 8 28% 9100 89535 18865 54%
c s  7.37 28 348 0 11 2135 30 25008 9751 4.4 37 8 2 8 28% 9113 88091 18865 54%
c e  7.46 28 348 0 11 2135 30 25008 9751 4.4 37 8 2 8 28% 8126 91329 16093 46%
c
c  seconds   switched     rate        size/glue tier1    binary         remaining
c         MB   reductions   conflicts       size  tier2     irredundant
c           level   restarts     redundant    glue   trail         variables
c
c s  7.48 28 348 0 11 2135 30 25008 9751 4.4 37 8 2 8 28% 8130 86856 16093 46%
c e  7.51 28 348 0 11 2135 30 25008 9751 4.4 37 8 2 8 28% 8122 86874 16081 46%
c ^  7.51 28 348 0 11 2135 30 25008 9751 4.4 37 8 2 8 28% 8122 86874 16081 46%
c -  7.76 28 330 0 12 2202 29 26787 8291 4.2 35 8 2 8 28% 8128 86874 16081 46%
c d  7.79 28 329 0 12 2211 29 26907 8407 4.2 35 8 2 8 28% 8105 86874 16066 46%
c u  7.81 28 329 0 12 2211 29 26907 6942 4.2 35 8 2 8 28% 8115 86874 16066 46%
c v  7.84 28 329 0 12 2211 29 26907 5945 4.2 35 8 2 8 28% 8116 86874 16066 46%
c w  7.85 28 329 0 12 2211 29 26907 5941 4.2 35 8 2 8 28% 8116 86874 16066 46%
c x  7.92 28 329 0 12 2211 29 26907 5941 4.2 35 8 2 8 28% 8117 84486 16066 46%
c =  8.10 28 329 0 12 2211 29 26907 5941 4.2 35 8 2 8 28% 10887 84485 14681 42%
c d  8.11 28 329 0 12 2211 29 26907 5698 4.2 35 8 2 8 28% 8072 84485 14681 42%
c t  8.12 28 329 0 12 2211 29 26907 5698 4.2 35 8 2 8 28% 8063 84485 14681 42%
c f  8.18 28 329 0 12 2211 29 26907 5698 4.2 35 8 2 8 28% 8068 84424 14695 42%
c u  8.20 28 329 0 12 2211 29 26907 5169 4.2 35 8 2 8 28% 8069 84424 14695 42%
c v  8.22 28 329 0 12 2211 29 26907 5041 4.2 35 8 2 8 28% 8069 84424 14695 42%
c w  8.23 28 329 0 12 2211 29 26907 5040 4.2 35 8 2 8 28% 8069 84424 14695 42%
c x  8.31 28 329 0 12 2211 29 26907 5040 4.2 35 8 2 8 28% 8069 74344 14695 42%
c =  8.47 28 329 0 12 2211 29 26907 5040 4.2 35 8 2 8 28% 8757 74304 14348 41%
c d  8.48 28 329 0 12 2211 29 26907 5022 4.2 35 8 2 8 28% 8066 74304 14348 41%
c -  8.82 28 304 0 13 2299 26 30253 7057 3.9 32 8 2 8 28% 8070 74304 14348 41%
c
c  seconds   switched     rate        size/glue tier1    binary         remaining
c         MB   reductions   conflicts       size  tier2     irredundant
c           level   restarts     redundant    glue   trail         variables
c
c -  9.08 28 283 0 14 2386 24 33858 8788 3.8 30 8 2 9 28% 8108 74303 14348 41%
c -  9.43 28 269 0 15 2592 24 37599 10469 3.7 29 8 2 8 28% 8130 74303 14348 41%
c o  9.61 28 261 0 15 2674 23 40085 12663 3.6 28 8 2 8 28% 8147 74301 14348 41%
c c  9.80 28 262 0 15 2769 23 41252 13738 3.6 28 8 2 8 28% 8192 74055 14296 41%
c d  9.80 28 262 0 15 2769 23 41252 13630 3.6 28 8 2 8 28% 8085 74055 14294 41%
c u  9.83 28 262 0 15 2769 23 41252 11757 3.6 28 8 2 8 28% 8093 74055 14294 41%
c v  9.86 28 262 0 15 2769 23 41252 11115 3.6 28 8 2 8 28% 8093 74055 14294 41%
c w  9.89 28 262 0 15 2769 23 41252 11115 3.6 28 8 2 8 28% 8093 74055 14294 41%
c x  9.92 28 262 0 15 2769 23 41252 11115 3.6 28 8 2 8 28% 8093 73232 14294 41%
c = 10.07 28 262 0 15 2769 23 41252 11115 3.6 28 8 2 8 28% 8701 73232 13990 40%
c d 10.07 28 262 0 15 2769 23 41252 10828 3.6 28 8 2 8 28% 8056 73232 13990 40%
c t 10.08 28 262 0 15 2769 23 41252 10828 3.6 28 8 2 8 28% 8051 73232 13990 40%
c u 10.12 28 262 0 15 2769 23 41252 10327 3.6 28 8 2 8 28% 8052 73232 13990 40%
c v 10.16 28 262 0 15 2769 23 41252 9359 3.6 28 8 2 8 28% 8052 73232 13990 40%
c w 10.18 28 262 0 15 2769 23 41252 9359 3.6 28 8 2 8 28% 8052 73232 13990 40%
c x 10.22 28 262 0 15 2769 23 41252 9357 3.6 28 8 2 8 28% 8052 69833 13990 40%
c = 10.36 28 262 0 15 2769 23 41252 9357 3.6 28 8 2 8 28% 8092 69833 13970 40%
c d 10.36 28 262 0 15 2769 23 41252 9357 3.6 28 8 2 8 28% 8049 69833 13969 40%
c - 10.40 28 263 0 16 2780 23 41473 8257 3.6 28 8 2 8 28% 8059 69833 13969 40%
c - 10.80 28 250 0 17 2955 22 45473 10330 3.5 27 8 2 8 28% 8073 69832 13969 40%
c
c  seconds   switched     rate         size/glue tier1    binary         remaining
c         MB   reductions   conflicts        size  tier2     irredundant
c           level   restarts      redundant    glue   trail         variables
c
c - 11.10 28 244 0 18 3154 22 49598 12386 3.5 26 8 2 8 28% 8125 69831 13969 40%
c s 11.25 28 241 0 18 3259 21 52111 14546 3.4 26 8 2 8 27% 8155 69176 13969 40%
c e 11.32 28 241 0 18 3259 21 52111 14546 3.4 26 8 2 8 27% 7173 70807 13164 38%
c s 11.32 28 241 0 18 3259 21 52111 14546 3.4 26 8 2 8 27% 7174 70454 13164 38%
c e 11.33 28 241 0 18 3259 21 52111 14546 3.4 26 8 2 8 27% 7169 70474 13156 38%
c ^ 11.33 28 241 0 18 3259 21 52111 14546 3.4 26 8 2 8 27% 7169 70474 13156 38%
c - 11.47 28 238 0 19 3324 21 53841 12729 3.4 25 7 2 8 27% 7185 70474 13156 38%
c - 11.83 28 230 0 20 3518 21 58200 14549 3.3 24 7 2 7 27% 7244 70474 13156 38%
c c 11.94 28 228 0 20 3584 21 58917 15194 3.3 24 7 2 7 27% 7308 70090 13096 38%
c d 11.95 28 228 0 20 3584 21 58917 15008 3.3 24 7 2 7 27% 7188 70090 13096 38%
c u 11.98 28 228 0 20 3584 21 58917 12451 3.3 24 7 2 7 27% 7218 70090 13096 38%
c v 12.02 28 228 0 20 3584 21 58917 11287 3.3 24 7 2 7 27% 7224 70090 13096 38%
c w 12.04 28 228 0 20 3584 21 58917 11283 3.3 24 7 2 7 27% 7224 70090 13096 38%
c x 12.08 28 228 0 20 3584 21 58917 11283 3.3 24 7 2 7 27% 7224 69888 13096 38%
c d 12.25 28 228 0 20 3584 21 58917 11263 3.3 24 7 2 7 27% 7192 69888 13080 38%
c t 12.26 28 228 0 20 3584 21 58917 11263 3.3 24 7 2 7 27% 7188 69888 13080 38%
c f 12.28 28 228 0 20 3584 21 58917 11263 3.3 24 7 2 7 27% 7198 69832 13089 38%
c c 12.32 28 228 0 20 3584 21 58917 11227 3.3 24 7 2 7 27% 7216 69744 13078 38%
c d 12.32 28 228 0 20 3584 21 58917 11227 3.3 24 7 2 7 27% 7194 69744 13078 38%
c u 12.35 28 228 0 20 3584 21 58917 10644 3.3 24 7 2 7 27% 7200 69744 13078 38%
c
c  seconds   switched     rate         size/glue tier1    binary         remaining
c         MB   reductions   conflicts        size  tier2     irredundant
c           level   restarts      redundant    glue   trail         variables
c
c v 12.38 28 228 0 20 3584 21 58917 10183 3.3 24 7 2 7 27% 7203 69744 13078 38%
c w 12.40 28 228 0 20 3584 21 58917 10155 3.3 24 7 2 7 27% 7203 69744 13078 38%
c x 12.44 28 228 0 20 3584 21 58917 10155 3.3 24 7 2 7 27% 7203 69672 13078 38%
c d 12.45 28 228 0 20 3584 21 58917 10151 3.3 24 7 2 7 27% 7199 69672 13076 38%
c - 12.80 28 221 0 21 3780 20 62672 11973 3.2 24 7 2 7 27% 7228 69672 13076 38%
c - 13.31 28 216 0 22 4152 20 67254 14250 3.2 23 7 2 7 27% 7289 69672 13076 38%
c o 13.50 28 212 0 22 4290 20 70099 16527 3.1 23 7 2 7 27% 7350 69672 13076 38%
c - 13.63 28 213 0 23 4380 20 71944 15937 3.1 23 7 2 7 26% 7375 69672 13076 38%
c - 14.18 28 210 0 24 4779 20 76739 17695 3.1 22 7 2 7 26% 7433 69672 13076 38%
c d 14.42 28 214 0 24 4962 20 80018 20123 3.0 22 7 2 7 26% 7247 69672 12970 37%
c u 14.47 28 214 0 24 4962 20 80018 16858 3.0 22 7 2 7 26% 7285 69672 12970 37%
c v 14.53 28 214 0 24 4962 20 80018 14866 3.0 22 7 2 7 26% 7295 69672 12970 37%
c w 14.60 28 214 0 24 4962 20 80018 14776 3.0 22 7 2 7 26% 7295 69672 12970 37%
c = 14.79 28 214 0 24 4962 20 80018 14776 3.0 22 7 2 7 26% 7425 69672 12905 37%
c d 14.80 28 214 0 24 4962 20 80018 14687 3.0 22 7 2 7 26% 7244 69672 12890 37%
c c 14.85 28 214 0 24 4962 20 80018 14687 3.0 22 7 2 7 26% 7294 69412 12860 37%
c d 14.86 28 214 0 24 4962 20 80018 14613 3.0 22 7 2 7 26% 7234 69412 12860 37%
c u 14.90 28 214 0 24 4962 20 80018 13840 3.0 22 7 2 7 26% 7244 69412 12860 37%
c v 14.93 28 214 0 24 4962 20 80018 13260 3.0 22 7 2 7 26% 7247 69412 12860 37%
c w 14.98 28 214 0 24 4962 20 80018 13190 3.0 22 7 2 7 26% 7247 69412 12860 37%
c
c  seconds   switched     rate         size/glue tier1    binary         remaining
c         MB   reductions   conflicts        size  tier2     irredundant
c           level   restarts      redundant    glue   trail         variables
c
c x 15.02 28 214 0 24 4962 20 80018 13189 3.0 22 7 2 7 26% 7247 69281 12860 37%
c = 15.25 28 214 0 24 4962 20 80018 13189 3.0 22 7 2 7 26% 7593 69253 12684 37%
c d 15.26 28 214 0 24 4962 20 80018 12920 3.0 22 7 2 7 26% 7198 69253 12684 37%
c - 15.53 28 211 0 25 5139 20 81638 13023 3.0 22 7 2 7 26% 7201 69253 12684 37%
c - 16.17 28 207 0 26 5553 20 86638 15720 3.0 22 7 2 7 27% 7218 69253 12684 37%
c - 16.85 28 201 0 27 6058 20 91740 18056 3.0 22 7 2 6 27% 7266 69253 12684 37%
c s 17.38 28 199 0 27 6441 20 95855 21654 3.0 22 7 2 6 27% 7301 68005 12684 37%
c e 17.46 28 199 0 27 6441 20 95855 21654 3.0 22 7 2 6 27% 5050 73868 11453 33%
c s 17.47 28 199 0 27 6441 20 95855 21654 3.0 22 7 2 6 27% 5050 73584 11453 33%
c e 17.48 28 199 0 27 6441 20 95855 21654 3.0 22 7 2 6 27% 5047 73636 11423 33%
c ^ 17.48 28 199 0 27 6441 20 95855 21654 3.0 22 7 2 6 27% 5047 73636 11423 33%
c - 17.67 28 198 0 28 6577 20 96937 16254 3.0 22 7 2 6 27% 5068 73636 11423 33%
c - 18.47 28 193 0 29 7216 20 102228 17048 2.9 22 8 1 6 27% 5133 73635 11423 33%
c c 18.82 28 194 0 29 7458 21 104679 19171 2.9 22 8 1 6 27% 5237 72997 11318 33%
c d 18.82 28 194 0 29 7458 21 104679 18763 2.9 22 8 1 6 27% 5027 72997 11318 33%
c u 18.86 28 194 0 29 7458 21 104679 16640 2.9 22 8 1 6 27% 5045 72997 11318 33%
c v 18.93 28 194 0 29 7458 21 104679 13333 2.9 22 8 1 6 27% 5057 72997 11318 33%
c w 19.04 28 194 0 29 7458 21 104679 13282 2.9 22 8 1 6 27% 5057 72997 11318 33%
c x 19.13 28 194 0 29 7458 21 104679 13278 2.9 22 8 1 6 27% 5057 71406 11318 33%
c = 19.52 28 194 0 29 7458 21 104679 13278 2.9 22 8 1 6 27% 5393 71404 11150 32%
c
c  seconds   switched     rate          size/glue tier1    binary         remaining
c         MB   reductions   conflicts         size  tier2     irredundant
c           level   restarts       redundant    glue   trail         variables
c
c d 19.53 28 194 0 29 7458 21 104679 12958 2.9 22 8 1 6 27% 4985 71404 11149 32%
c t 19.54 28 194 0 29 7458 21 104679 12958 2.9 22 8 1 6 27% 4979 71404 11149 32%
c u 19.64 28 194 0 29 7458 21 104679 12304 2.9 22 8 1 6 27% 4981 71404 11149 32%
c v 19.68 28 194 0 29 7458 21 104679 11649 2.9 22 8 1 6 27% 4982 71404 11149 32%
c w 19.79 28 194 0 29 7458 21 104679 11545 2.9 22 8 1 6 27% 4982 71404 11149 32%
c x 19.88 28 194 0 29 7458 21 104679 11514 2.9 22 8 1 6 27% 4985 70288 11149 32%
c = 20.28 28 194 0 29 7458 21 104679 11514 2.9 22 8 1 6 27% 5003 70288 11140 32%
c d 20.28 28 194 0 29 7458 21 104679 11495 2.9 22 8 1 6 27% 4982 70288 11140 32%
c t 20.29 28 194 0 29 7458 21 104679 11495 2.9 22 8 1 6 27% 4979 70288 11140 32%
c i 20.36 28 196 0 29 7496 20 105940 12381 2.9 22 7 1 6 27% 4993 70286 11139 32%
c - 20.58 28 194 0 30 7623 20 107614 11559 2.9 22 7 1 6 28% 4994 70282 11139 32%
c o 20.90 28 192 0 30 7867 20 110165 13953 2.9 22 8 1 6 28% 4997 70282 11139 32%
c - 21.38 28 189 0 31 8237 20 113091 14106 2.9 22 8 1 6 28% 4997 70282 11139 32%
c - 21.99 28 189 0 32 8744 20 118658 15982 2.9 22 8 1 6 28% 5023 70282 11139 32%
c - 22.72 28 186 0 33 9315 20 124315 17489 2.9 22 8 1 6 28% 5034 70281 11139 32%
c - 23.62 28 184 0 34 10050 21 130059 19196 2.9 22 8 1 6 28% 5049 70281 11139 32%
c d 24.21 28 182 0 34 10464 21 132982 21742 2.9 23 8 1 6 28% 5002 70280 11109 32%
c u 24.26 28 182 0 34 10464 21 132982 19450 2.9 23 8 1 6 28% 5018 70280 11109 32%
c v 24.34 28 182 0 34 10464 21 132982 15740 2.9 23 8 1 6 28% 5021 70280 11109 32%
c w 24.46 28 182 0 34 10464 21 132982 15739 2.9 23 8 1 6 28% 5021 70280 11109 32%
c
c  seconds   switched      rate          size/glue tier1    binary         remaining
c         MB   reductions    conflicts         size  tier2     irredundant
c           level   restarts        redundant    glue   trail         variables
c
c x 24.55 28 182 0 34 10464 21 132982 15739 2.9 23 8 1 6 28% 5021 69956 11109 32%
c = 25.00 28 182 0 34 10464 21 132982 15739 2.9 23 8 1 6 28% 5057 69956 11091 32%
c d 25.00 28 182 0 34 10464 21 132982 15700 2.9 23 8 1 6 28% 5000 69956 11085 32%
c t 25.01 28 182 0 34 10464 21 132982 15700 2.9 23 8 1 6 28% 4997 69956 11085 32%
c c 25.05 28 182 0 34 10464 21 132982 15700 2.9 23 8 1 6 28% 5008 69904 11079 32%
c d 25.05 28 182 0 34 10464 21 132982 15686 2.9 23 8 1 6 28% 4996 69904 11079 32%
c u 25.08 28 182 0 34 10464 21 132982 15158 2.9 23 8 1 6 28% 4998 69904 11079 32%
c v 25.13 28 182 0 34 10464 21 132982 14400 2.9 23 8 1 6 28% 4998 69904 11079 32%
c w 25.40 28 182 0 34 10464 21 132982 14183 2.9 23 8 1 6 28% 4998 69904 11079 32%
c = 25.84 28 182 0 34 10464 21 132982 14183 2.9 23 8 1 6 28% 5034 69904 11061 32%
c d 25.85 28 182 0 34 10464 21 132982 14169 2.9 23 8 1 6 28% 4992 69904 11061 32%
c t 25.86 28 182 0 34 10464 21 132982 14169 2.9 23 8 1 6 28% 4991 69904 11061 32%
c - 26.19 28 181 0 35 10642 21 135889 14258 2.9 23 8 1 6 29% 5012 69904 11061 32%
c - 27.07 28 178 0 36 11184 21 141806 16870 2.9 23 8 1 5 29% 5024 69904 11061 32%
c - 27.99 28 174 0 37 11799 21 147807 19099 2.9 23 8 1 5 29% 5041 69904 11061 32%
c i 28.26 28 173 0 37 11999 21 150121 21064 2.9 23 8 1 5 29% 5073 69904 11058 32%
c i 28.29 28 172 0 37 12022 21 150473 21353 2.9 23 8 1 5 29% 5082 69904 11057 32%
c - 28.52 28 179 0 38 12162 20 153889 20255 2.8 23 8 1 5 29% 5093 69904 11057 32%
c i 28.60 28 178 0 38 12216 20 154395 20736 2.8 23 8 1 5 29% 5094 69904 11051 32%
c i 28.60 28 178 0 38 12216 20 154396 20736 2.8 23 8 1 5 29% 5094 69904 11049 32%
c
c  seconds   switched      rate          size/glue tier1    binary         remaining
c         MB   reductions    conflicts         size  tier2     irredundant
c           level   restarts        redundant    glue   trail         variables
c
c i 28.60 28 178 0 38 12216 20 154403 20734 2.8 23 8 1 5 29% 5097 69904 11048 32%
c i 28.66 28 178 0 38 12271 20 154875 21133 2.8 23 8 1 5 29% 5105 69904 11047 32%
c i 28.66 28 178 0 38 12271 20 154957 21175 2.8 23 8 1 5 29% 5109 69904 11045 32%
c i 28.70 28 178 0 38 12298 20 155195 21388 2.8 23 8 1 5 29% 5111 69904 11044 32%
c i 28.71 28 178 0 38 12299 20 155204 21386 2.8 23 8 1 5 29% 5114 69904 11042 32%
c i 28.74 28 177 0 38 12312 20 155646 21782 2.8 23 8 1 5 29% 5119 69903 11034 32%
c i 28.74 28 177 0 38 12315 20 155673 21806 2.8 23 8 1 5 29% 5120 69903 11033 32%
c i 28.75 28 177 0 38 12316 20 155681 21810 2.8 23 8 1 5 29% 5121 69903 11032 32%
c i 28.76 28 177 0 38 12325 20 155789 21910 2.8 23 8 1 5 29% 5123 69903 11031 32%
c i 28.82 28 177 0 38 12362 20 156285 22347 2.8 23 8 1 5 29% 5127 69902 11030 32%
c i 28.92 28 175 0 38 12457 20 157771 23641 2.8 23 8 1 5 29% 5139 69902 11029 32%
c i 28.93 28 175 0 38 12463 20 157895 23756 2.8 23 8 1 5 29% 5140 69902 11028 32%
c s 28.94 28 175 0 38 12463 20 158001 23845 2.8 23 8 1 5 29% 5137 69434 11028 32%
c e 29.04 28 175 0 38 12463 20 158001 23845 2.8 23 8 1 5 29% 2699 80610 9365 27%
c 2 29.04 28 175 0 38 12463 20 158001 23845 2.8 23 8 1 5 29% 2696 80610 9365 27%
c s 29.06 28 175 0 38 12463 20 158001 23845 2.8 23 8 1 5 29% 2697 79735 9365 27%
c e 29.08 28 175 0 38 12463 20 158001 23845 2.8 23 8 1 5 29% 2684 79860 9329 27%
c ^ 29.08 28 175 0 38 12463 20 158001 23845 2.8 23 8 1 5 29% 2684 79860 9329 27%
c i 29.09 28 175 0 38 12466 20 158102 15390 2.8 23 8 1 5 29% 2687 79860 9328 27%
c i 29.10 28 175 0 38 12487 20 158368 15591 2.8 23 8 1 5 29% 2691 79856 9327 27%
c
c  seconds   switched      rate          size/glue tier1    binary        remaining
c         MB   reductions    conflicts         size  tier2     irredundant
c           level   restarts        redundant    glue   trail        variables
c
c i 29.11 28 175 0 38 12493 20 158516 15696 2.8 23 8 1 5 29% 2693 79856 9326 27%
c - 29.19 28 173 0 39 12569 20 160054 14284 2.8 23 8 1 5 29% 2709 79823 9326 27%
c o 29.19 28 173 0 39 12574 20 160196 14381 2.8 23 8 1 5 29% 2709 79823 9326 27%
c i 29.22 28 172 0 39 12602 20 160677 14824 2.8 23 8 1 5 29% 2711 79823 9325 27%
c i 29.24 28 172 0 39 12614 20 161075 15177 2.8 23 8 1 5 29% 2713 79822 9324 27%
c i 29.27 28 171 0 39 12646 20 161679 15699 2.8 23 8 1 5 29% 2718 79821 9323 27%
c d 29.35 28 167 0 39 12750 19 165023 17843 2.8 22 8 1 5 28% 2701 79735 9295 27%
c d 29.35 28 167 0 39 12750 19 165023 17837 2.8 22 8 1 5 28% 2697 79735 9293 27%
c u 29.38 28 167 0 39 12750 19 165023 15673 2.8 22 8 1 5 28% 2712 79735 9291 27%
c v 29.43 28 167 0 39 12750 19 165023 12342 2.8 22 8 1 5 28% 2721 79735 9291 27%
c w 29.51 28 167 0 39 12750 19 165023 12056 2.8 22 8 1 5 28% 2720 79735 9291 27%
c x 29.57 28 167 0 39 12750 19 165023 12055 2.8 22 8 1 5 28% 2722 79683 9291 27%
c = 29.96 28 167 0 39 12750 19 165023 12055 2.8 22 8 1 5 28% 2788 79525 9257 27%
c d 29.97 28 167 0 39 12750 19 165023 12015 2.8 22 8 1 5 28% 2688 79525 9255 27%
c t 29.98 28 167 0 39 12750 19 165023 12015 2.8 22 8 1 5 28% 2679 79525 9255 27%
c f 30.06 28 167 0 39 12750 19 165023 12015 2.8 22 8 1 5 28% 2686 79113 9275 27%
c u 30.09 28 167 0 39 12750 19 165023 11660 2.8 22 8 1 5 28% 2690 79113 9274 27%
c v 30.12 28 167 0 39 12750 19 165023 11119 2.8 22 8 1 5 28% 2693 79113 9274 27%
c w 30.18 28 167 0 39 12750 19 165023 10619 2.8 22 8 1 5 28% 2693 79113 9274 27%
c = 30.27 28 167 0 39 12750 19 165023 10619 2.8 22 8 1 5 28% 2765 78962 9204 27%
c
c  seconds   switched      rate          size/glue tier1    binary        remaining
c         MB   reductions    conflicts         size  tier2     irredundant
c           level   restarts        redundant    glue   trail        variables
c
c } 30.27 28 167 0 39 12750 19 165023 10619 2.8 22 8 1 5 28% 2765 78962 9239 27%
c 0 30.27 28 167 0 39 12750 19 165023 10619 2.8 22 8 1 5 28% 2765 78962 9239 27%
c
c ---- [ result ] ------------------------------------------------------------
c
s UNSATISFIABLE
c
c ---- [ profiling ] ---------------------------------------------------------
c
c          20.50   67.74 %  search
c          20.50   67.74 %  focused
c           9.41   31.08 %  simplify
c           8.91   29.45 %  probe
c           4.11   13.59 %  sweep
c           3.21   10.60 %  vivify
c           0.69    2.28 %  eliminate
c           0.60    1.97 %  factor
c           0.48    1.58 %  congruence
c           0.38    1.26 %  substitute
c           0.30    1.00 %  preprocess
c           0.16    0.54 %  reduce
c           0.12    0.41 %  subsume
c           0.10    0.34 %  fastel
c           0.10    0.32 %  transitive
c           0.04    0.13 %  backbone
c           0.03    0.10 %  lucky
c           0.02    0.08 %  parse
c =============================================
c          30.27  100.00 %  total
c
c ---- [ statistics ] --------------------------------------------------------
c
c chronological:                         5032                3 %  conflicts
c conflicts:                           165023             5451.61 per second
c congruent:                             3695               11 %  variables
c decisions:                          3117137               18.89 per conflict
c eliminated:                           19001               55 %  variables
c factored:                              3584               10 %  variables
c fast_eliminated:                      11095               58 %  eliminated
c fast_strengthened:                       12                0 %  per strengthened
c fast_subsumed:                           68                1 %  per subsumed
c iterations:                              23                0 %  variables
c propagations:                     139216123          4599064    per second
c reductions:                              39             4231    interval
c reordered:                                6            27504    interval
c restarts:                             12750               13    interval
c strengthened:                          4884                0 %  checks
c substituted:                           9957               29 %  variables
c subsumed:                             11646                0 %  checks
c switched:                                 0                0    interval
c vivified:                             87097               13 %  checks
c
c ---- [ glue usage ] --------------------------------------------------------
c
c focused glue 1 used 247772 clauses 56.19% accumulated 56.19% tier1
c focused glue 2 used  92847 clauses 21.06% accumulated 77.24%
c focused glue 3 used  29035 clauses  6.58% accumulated 83.83%
c focused glue 4 used  17016 clauses  3.86% accumulated 87.69%
c focused glue 5 used  11426 clauses  2.59% accumulated 90.28% tier2
c
c ---- [ resources ] ---------------------------------------------------------
c
c maximum-resident-set-size:         29974528 bytes         29 MB
c process-time:                            30s              30.27 seconds
c
c ---- [ shutting down ] -----------------------------------------------------
c
c exit 20
